problems/csplib-prob015/SchursLemma-models/noch/O2/lingeling/model_1_3-3-15-solution000001.eprime-solution
language ESSENCE' 1.0

letting boxes_PartitionAsSet_ExplicitR5_ExplicitVarSizeWithMarker_Marker be [4, 5, 6; int(1..3)]
letting boxes_PartitionAsSet_ExplicitR5_ExplicitVarSizeWithMarker_Values be
        [[1, 2, 5, 10, 1, 1, 1, 1, 1, 1, 1, 1, 1, 1, 1; int(1..15)],
         [3, 4, 8, 13, 15, 1, 1, 1, 1, 1, 1, 1, 1, 1, 1; int(1..15)],
         [6, 7, 9, 11, 12, 14, 1, 1, 1, 1, 1, 1, 1, 1, 1; int(1..15)]; int(1..3)]
