problems/csplib-prob015/SchursLemma-models/noch/O2/lingeling/model_1_3-3-15-solution000001.solution
language Essence 1.3

letting boxes be partition({1, 2, 5, 10}, {3, 4, 8, 13, 15}, {6, 7, 9, 11, 12, 14})
